Version identifier: 20.1.0.0 | 2020-11-10 | 9bedb6d68
CPXPARAM_Threads                                 1
CPXPARAM_TimeLimit                               7200
CPXPARAM_MIP_Tolerances_MIPGap                   0
Generic callback                                 0x60
1 of 1 MIP starts provided solutions.
MIP start 'm1' defined initial solution with objective 2878.8985.
Tried aggregator 1 time.
Reduced MIP has 640801 rows, 640801 columns, and 1920800 nonzeros.
Reduced MIP has 800 binaries, 0 generals, 0 SOSs, and 0 indicators.
Presolve time = 0.65 sec. (607.18 ticks)
Probing time = 0.08 sec. (80.04 ticks)
Tried aggregator 1 time.
Reduced MIP has 640801 rows, 640801 columns, and 1920800 nonzeros.
Reduced MIP has 800 binaries, 0 generals, 0 SOSs, and 0 indicators.
Presolve time = 0.68 sec. (596.80 ticks)
Probing time = 0.08 sec. (80.04 ticks)
MIP emphasis: balance optimality and feasibility.
MIP search method: dynamic search.
Parallel mode: none, using 1 thread.
Root relaxation solution time = 0.22 sec. (246.73 ticks)

        Nodes                                         Cuts/
   Node  Left     Objective  IInf  Best Integer    Best Bound    ItCnt     Gap

*     0+    0                         2878.8985     4368.0000            51.72%
      0     0     2940.9694    18     2878.8985     4368.0000        0   51.72%
      0     2     2940.9694    18     2878.8985     2940.9693        0    2.16%
Elapsed time = 2800.59 sec. (2243939.08 ticks, tree = 0.01 MB, solutions = 1)
      1     3     2936.6590    27     2878.8985     2940.9693    39801    2.16%
      2     4     2933.4100    14     2878.8985     2936.6587    62933    2.01%
      3     5     2932.6960     7     2878.8985     2936.6587    66156    2.01%
      4     6     2932.0014     8     2878.8985     2936.6587    95497    2.01%
      5     7     2932.3137     4     2878.8985     2936.6587   162788    2.01%
      6     8     2932.0173     4     2878.8985     2936.6587   171745    2.01%
*     7     7      integral     0     2928.3917     2936.6587   184135    0.28%
      7     7     2928.3917     0     2928.3917     2936.6587   184135    0.28%
      8     8     2931.8477     3     2928.3917     2936.6587   184337    0.28%
      9     9     2931.8036     4     2928.3917     2936.6587   202358    0.28%
     10     8        cutoff           2928.3917     2936.6587   263721    0.28%
Elapsed time = 5193.50 sec. (3713081.38 ticks, tree = 1.38 MB, solutions = 2)
     11     9     2931.5012     4     2928.3917     2936.6587   277564    0.28%
     12     8        cutoff           2928.3917     2936.6587   288054    0.28%
     13     9     2931.3464     4     2928.3917     2936.6587   295710    0.28%
     14     8        cutoff           2928.3917     2936.6587   305073    0.28%
     15     9     2931.1939     4     2928.3917     2936.6587   312203    0.28%
     16     8        cutoff           2928.3917     2936.6587   322943    0.28%
     17     9     2930.6201     2     2928.3917     2936.6587   328692    0.28%
     18    10     2930.2472     2     2928.3917     2936.6587   349378    0.28%
     20    10     2929.9171     3     2928.3917     2936.6587   350500    0.28%
     21     9        cutoff           2928.3917     2936.6587   351388    0.28%
Elapsed time = 5368.04 sec. (3837115.04 ticks, tree = 1.61 MB, solutions = 2)
     22    10     2929.7265     2     2928.3917     2936.6587   353192    0.28%
     23    11     2929.0577     2     2928.3917     2936.6587   359467    0.28%
     24    10        cutoff           2928.3917     2936.6587   370755    0.28%
*    25     9      integral     0     2928.4435     2936.6587   378359    0.28%
     25     9     2928.4435     0     2928.4435     2936.6587   378359    0.28%
     27     9     2936.2451    27     2928.4435     2936.6574   391482    0.28%
     28    10     2936.1472    34     2928.4435     2936.6574   417473    0.28%
     29    11     2934.6515    12     2928.4435     2936.6574   424227    0.28%
     30    12     2934.5367    11     2928.4435     2936.6574   435000    0.28%
     31    13     2934.3501    13     2928.4435     2936.6574   438042    0.28%
     32    14     2933.2309     4     2928.4435     2936.6574   444563    0.28%
Elapsed time = 6558.03 sec. (4638797.86 ticks, tree = 12.54 MB, solutions = 3)
     33    15     2933.2118     4     2928.4435     2936.6574   444691    0.28%
     34    16     2930.1862     4     2928.4435     2936.6574   452365    0.28%
     35    17     2933.1485     2     2928.4435     2936.6574   452894    0.28%
     36    18     2932.9228     2     2928.4435     2936.6574   456593    0.28%
     37    19     2933.0358     2     2928.4435     2936.6574   457395    0.28%
     38    20     2932.9938     2     2928.4435     2936.6574   457569    0.28%
     39    19        cutoff           2928.4435     2936.6574   460127    0.28%
*    40+   14                         2931.9247     2936.6574             0.16%
     40    16     2932.8320     2     2931.9247     2936.6574   467114    0.16%
Advanced basis not built.

User cuts applied:  12

Root node processing (before b&c):
  Real time             = 2800.57 sec. (2243940.78 ticks)
Sequential b&c:
  Real time             = 4399.91 sec. (2755658.62 ticks)
                          ------------
Total (root+branch&cut) = 7200.49 sec. (4999599.40 ticks)
@Parameters: 
is_S_cut                                true
is_add_all_yinF                         true
is_start_value                          true
is_usercut                              true
is_visualization                        false
uc_only_rootnode                        false

data                                    Qi
fn                                      data/Qi/instance_800_800.csv
mode                                    ZLP
solver                                  cplex

p                                       5
r                                       2

EPS                                     1.0e-06
EPS_vio                                 1.0e-04
beta                                    0.10
gap                                     0.00
nodelimit                               Inf
timelimit                               7200.00


@PrintInfos
ItCnt: 478215
Current gap: 0.16 %
Termination Status: TIME_LIMIT
Primal Status: FEASIBLE_POINT
Solve Time: 7200.49 sec
Objective Value: 2931.924739
Number of Nodes:     41

CutInfo: [phase] num / time (sec) 
ZLP             [phase1]     0 / 0.00 [rLC]     4 / 17.43 [rUC]     2 / 6.88 [sLC]     0 / 8.66 [sUC]    10 / 227.73 
OldSubmodular   [phase1]     0 / 0.00 [rLC]     0 / 0.00 [rUC]     0 / 0.00 [sLC]     0 / 0.00 [sUC]     0 / 0.00 
NewSubmodular   [phase1]     0 / 0.00 [rLC]     0 / 0.00 [rUC]     0 / 0.00 [sLC]     0 / 0.00 [sUC]     0 / 0.00 
PMP             [phase1]     0 / 0.00 [rLC]     5 / 12.95 [rUC]     2 / 4.65 [sLC]     3 / 7.70 [sUC]    68 / 183.16 
Separation Round: [phase1] 0  [rLC] 5  [rUC] 2  [sLC] 3  [sUC] 68
Root Best Bound 2936.658721
Root Best Integer: 2878.898526
Best Bound: 2936.657366
Best Integer: 2928.443503

